data/CVRPLIB/Vrp-Set-XML100/instances/XML100_3216_01.vrp
NAME : XML100_3216_01
COMMENT : Generated by Queiroga, Sadykov, Uchoa, and Vidal (2021)
TYPE : CVRP
DIMENSION : 101
EDGE_WEIGHT_TYPE : EUC_2D
CAPACITY : 47
NODE_COORD_SECTION
1    0    0   
2    807  84  
3    891  247 
4    757  186 
5    655  574 
6    682  270 
7    701  323 
8    823  300 
9    737  335 
10   744  229 
11   627  540 
12   715  197 
13   739  279 
14   722  219 
15   845  133 
16   802  195 
17   684  382 
18   650  225 
19   757  274 
20   573  487 
21   779  132 
22   939  335 
23   761  342 
24   880  580 
25   780  306 
26   830  199 
27   805  32  
28   618  345 
29   875  355 
30   602  260 
31   679  235 
32   777  248 
33   731  291 
34   602  302 
35   793  337 
36   696  167 
37   638  404 
38   737  545 
39   703  166 
40   824  292 
41   843  308 
42   726  356 
43   633  308 
44   594  466 
45   646  272 
46   844  239 
47   758  368 
48   568  96  
49   630  222 
50   707  472 
51   662  148 
52   888  403 
53   763  341 
54   880  251 
55   825  180 
56   714  298 
57   801  484 
58   736  209 
59   660  266 
60   662  201 
61   669  151 
62   864  342 
63   681  239 
64   812  237 
65   679  199 
66   821  158 
67   720  219 
68   919  341 
69   752  277 
70   691  190 
71   650  95  
72   827  250 
73   659  425 
74   518  518 
75   565  126 
76   683  209 
77   581  65  
78   758  116 
79   745  328 
80   937  451 
81   698  284 
82   672  263 
83   793  295 
84   686  97  
85   740  396 
86   735  345 
87   697  213 
88   789  52  
89   668  196 
90   736  282 
91   688  224 
92   859  390 
93   670  153 
94   706  206 
95   694  441 
96   726  173 
97   824  218 
98   778  312 
99   701  215 
100  784  312 
101  814  313 
DEMAND_SECTION
1    0   
2    1   
3    1   
4    1   
5    1   
6    1   
7    1   
8    1   
9    1   
10   1   
11   1   
12   1   
13   1   
14   1   
15   1   
16   1   
17   1   
18   1   
19   1   
20   1   
21   1   
22   1   
23   1   
24   1   
25   1   
26   1   
27   1   
28   1   
29   1   
30   1   
31   1   
32   1   
33   1   
34   1   
35   1   
36   1   
37   1   
38   1   
39   1   
40   1   
41   1   
42   1   
43   1   
44   1   
45   1   
46   1   
47   1   
48   1   
49   1   
50   1   
51   1   
52   1   
53   1   
54   1   
55   1   
56   1   
57   1   
58   1   
59   1   
60   1   
61   1   
62   1   
63   1   
64   1   
65   1   
66   1   
67   1   
68   1   
69   1   
70   1   
71   1   
72   1   
73   1   
74   1   
75   1   
76   1   
77   1   
78   1   
79   1   
80   1   
81   1   
82   1   
83   1   
84   1   
85   1   
86   1   
87   1   
88   1   
89   1   
90   1   
91   1   
92   1   
93   1   
94   1   
95   1   
96   1   
97   1   
98   1   
99   1   
100  1   
101  1   
DEPOT_SECTION
1
-1
EOF
