data/CVRPLIB/Vrp-Set-XML100/solutions/XML100_3216_01.sol
Route #1: 73 19 43 10 4 37 56 23 79 51 91 28 61 67 21 2 53 45 71 39 7 40 100 82 24 97 99 34 52 22 78 8 85 41 46 84 16 94 49 72 36 27 42 33
Route #2: 47 76 70 83 77 20 87 26 1 14 65 54 15 25 96 63 31 18 68 12 89 32 55 6 80 5 81 58 44 29
Route #3: 74 50 60 92 35 38 95 3 57 9 13 66 11 93 98 86 90 62 30 75 69 64 88 59 17 48
Cost 7079
